sat
(:added-eqs                       6557
 :arith-eq-adapter                345
 :arith-bound-propagations-lp     188
 :arith-branch                    7
 :arith-conflicts                 1220
 :arith-cube-calls                1
 :arith-diseq                     449
 :arith-fixed-eqs                 518
 :arith-gcd-calls                 133
 :arith-gomory-cuts               2
 :arith-grobner-calls             123
 :arith-grobner-conflicts         110
 :arith-hnf-calls                 1
 :arith-horner-calls              26
 :arith-horner-conflicts          1
 :arith-horner-cross-nested-forms 15902
 :arith-lower                     1702
 :arith-make-feasible             2533
 :arith-max-columns               1836
 :arith-max-rows                  839
 :arith-nla-add-bounds            3
 :arith-nla-lemmas                571
 :arith-nla-propagate-bounds      535
 :arith-nla-propagate-eq          7509
 :arith-nra-calls                 29
 :arith-offset-eqs                1016
 :arith-patches                   133
 :arith-patches-success           122
 :arith-upper                     3155
 :binary-propagations             1674
 :cnf-encoding-aux-vars           28
 :conflicts                       173
 :decisions                       3147
 :del-clause                      684
 :elim-unconstrained              23
 :final-checks                    294
 :max-memory                      114.49
 :memory                          58.84
 :minimized-lits                  149
 :mk-bool-var                     3697
 :mk-clause                       1320
 :mk-clause-binary                8136
 :nlsat-conflicts                 2489
 :nlsat-decisions                 475
 :nlsat-propagations              217176
 :nlsat-restarts                  5
 :nlsat-stages                    156960
 :num-allocs                      3678525803
 :num-checks                      1
 :propagations                    3482
 :restarts                        1
 :rlimit-count                    3581146
 :sat-mk-clause-2ary              132847
 :sat-mk-clause-nary              197268
 :sat-mk-var                      94888
 :sls-arith-moves                 2380
 :sls-ddfw-flips                  4633.00
 :sls-ddfw-shifts                 4.00
 :sls-num-guided-search           10
 :solve-eqs-elim-vars             147
 :solve-eqs-steps                 2446
 :time                            2.40
 :total-time                      2.41)
